100
32
25
5
19
7
3
15
31
21
24
4
5
13
26
7
22
10
26
9
1
1
19
1
2
1
5
2
3
1
3
2
2
17
3
4
3
7
1
1
16
2
1
1
4
1
8
17
5
1
7
18
3
1
1
2
2
1
17
1
1
2
1
2
18
1
2
1
1
4
1
2
3
2
1
1
1
1
5
2
19
2
1
1
1
1
17
1
4
1
7
1
1
23
1
1
1
4
1
3
1
2